GLPSOL--GLPK LP/MIP Solver 5.0
Parameter(s) specified in the command line:
 --lp ../modeles/20_69.lp --log 20_69.log
Reading problem data from '../modeles/20_69.lp'...
1461 rows, 2800 columns, 9760 non-zeros
1380 integer variables, all of which are binary
4287 lines were read
GLPK Integer Optimizer 5.0
1461 rows, 2800 columns, 9760 non-zeros
1380 integer variables, all of which are binary
Preprocessing...
1400 constraint coefficient(s) were reduced
1461 rows, 2780 columns, 9740 non-zeros
1380 integer variables, all of which are binary
Scaling...
 A: min|aij| =  8.402e-04  max|aij| =  4.000e+00  ratio =  4.761e+03
GM: min|aij| =  1.204e-01  max|aij| =  8.307e+00  ratio =  6.900e+01
EQ: min|aij| =  1.449e-02  max|aij| =  1.000e+00  ratio =  6.900e+01
2N: min|aij| =  1.344e-02  max|aij| =  1.695e+00  ratio =  1.261e+02
Constructing initial basis...
Size of triangular part is 1461
Solving LP relaxation...
GLPK Simplex Optimizer 5.0
1461 rows, 2780 columns, 9740 non-zeros
      0: obj =   4.000000000e+01 inf =   9.950e+01 (41)
    219: obj =   4.917016807e-01 inf =   0.000e+00 (0)
*   607: obj =  -4.438858696e+00 inf =   6.106e-16 (0) 1
OPTIMAL LP SOLUTION FOUND
Integer optimization begins...
Long-step dual simplex will be used
+   607: mip =     not found yet >=              -inf        (1; 0)
+   611: >>>>>  -4.438858696e+00 >=  -4.438858696e+00 < 0.1% (4; 0)
+   611: mip =  -4.438858696e+00 >=     tree is empty   0.0% (0; 7)
INTEGER OPTIMAL SOLUTION FOUND
Time used:   0.1 secs
Memory used: 4.1 Mb (4276406 bytes)
